c A SAT instance generated from a 3-CNF formula that had 25 clauses and 25 variables
p cnf 25 25
-10 11 19 0
-12 -13 -22 0
-10 5 -11 0
19 1 -5 0
-21 -17 3 0
-21 -3 -6 0
16 2 15 0
-25 16 -8 0
20 3 14 0
-12 9 -18 0
7 -6 22 0
2 -4 -7 0
23 -12 -17 0
-1 21 -14 0
-15 -24 -11 0
13 -14 19 0
7 2 6 0
5 -11 -16 0
12 -18 -17 0
-11 -2 22 0
-13 -18 -6 0
-17 11 -18 0
18 25 21 0
-23 5 9 0
-15 -23 12 0
